solution status: optimal solution found
objective value:                      163429.76304083
d11(0,0)                                            1 	(obj:0)
d11(1,1)                                            1 	(obj:0)
d11(2,3)                                            1 	(obj:0)
d11(2,5)                                            1 	(obj:0)
d11(3,7)                                            1 	(obj:0)
d11(3,9)                                            1 	(obj:0)
d11(3,10)                                           1 	(obj:0)
d11(3,11)                                           1 	(obj:0)
d11(3,13)                                           1 	(obj:0)
d11(3,14)                                           1 	(obj:0)
d11(4,15)                                           1 	(obj:0)
d11(4,16)                                           1 	(obj:0)
d11(4,17)                                           1 	(obj:0)
d11(4,18)                                           1 	(obj:0)
d11(4,19)                                           1 	(obj:0)
d11(4,21)                                           1 	(obj:0)
d11(4,22)                                           1 	(obj:0)
d11(4,23)                                           1 	(obj:0)
d11(4,24)                                           1 	(obj:0)
d11(4,25)                                           1 	(obj:0)
d11(4,26)                                           1 	(obj:0)
d11(4,27)                                           1 	(obj:0)
d11(4,28)                                           1 	(obj:0)
d11(4,29)                                           1 	(obj:0)
d11(4,30)                                           1 	(obj:0)
d12(1,2)                                            1 	(obj:0)
d21(3,7)                                            1 	(obj:0)
d21(4,15)                                           1 	(obj:0)
d21(4,16)                                           1 	(obj:0)
d21(4,17)                                           1 	(obj:0)
d21(4,19)                                           1 	(obj:0)
d21(4,23)                                           1 	(obj:0)
d21(4,24)                                           1 	(obj:0)
d21(4,25)                                           1 	(obj:0)
d21(4,27)                                           1 	(obj:0)
STE(1,1)                             13313.2498988891 	(obj:0)
STE(0,0)                                        15750 	(obj:0)
STE(1,2)                             14759.0265724287 	(obj:0)
STE(2,3)                             10394.9999999982 	(obj:0)
STE(2,4)                             12053.2498988891 	(obj:0)
STE(2,5)                             11840.7766735377 	(obj:0)
STE(2,6)                             13499.0265724287 	(obj:0)
STE(3,7)                             7476.75010110936 	(obj:0)
STE(3,8)                             9134.99999999818 	(obj:0)
STE(3,9)                             9135.00000000033 	(obj:0)
STE(3,10)                            10793.2498988891 	(obj:0)
STE(3,11)                            8922.52677464891 	(obj:0)
STE(3,12)                            10580.7766735377 	(obj:0)
STE(3,13)                            10580.7766735399 	(obj:0)
STE(3,14)                            12239.0265724287 	(obj:0)
STE(4,15)                            4558.50020222052 	(obj:0)
STE(4,16)                            6216.75010110933 	(obj:0)
STE(4,17)                            6216.75010110933 	(obj:0)
STE(4,18)                                        7875 	(obj:0)
STE(4,19)                            6216.75010111149 	(obj:0)
STE(4,20)                            7875.00000000033 	(obj:0)
STE(4,21)                             7875.0000000003 	(obj:0)
STE(4,22)                            9533.24989888912 	(obj:0)
STE(4,23)                            6004.27687576007 	(obj:0)
STE(4,24)                            7662.52677464891 	(obj:0)
STE(4,25)                            7662.52677464889 	(obj:0)
STE(4,26)                             9320.7766735377 	(obj:0)
STE(4,27)                            7662.52677465104 	(obj:0)
STE(4,28)                            9320.77667353985 	(obj:0)
STE(4,29)                            9320.77667353985 	(obj:0)
STE(4,30)                            10979.0265724287 	(obj:0)
y1(3,11)                             1492.42490899994 	(obj:0)
y1(3,13)                             1492.42490899994 	(obj:0)
y1(4,15)                             1492.42490899996 	(obj:0)
y1(4,17)                             1492.42490899996 	(obj:0)
y1(4,18)                         -1.63912773132324e-009 	(obj:0)
y1(4,19)                             1492.42490899996 	(obj:0)
y1(4,21)                             1492.42490899996 	(obj:0)
y1(4,23)                             1492.42490899996 	(obj:0)
y1(4,25)                             1492.42490899996 	(obj:0)
y1(4,27)                             1492.42490899996 	(obj:0)
y1(4,29)                             1492.42490899996 	(obj:0)
AVE(1)                               3265.91696791192 	(obj:0)
WB(2)                                3332.74178563533 	(obj:0)
AVE(2)                               3332.74178563731 	(obj:0)
WB(3)                                3444.11697932125 	(obj:0)
AVE(3)                               3444.11697932125 	(obj:0)
AVE(4)                               3399.56511093778 	(obj:0)
WG(1)                                3265.91696791192 	(obj:10)
WG(2)                            1.97675889262892e-009 	(obj:10)
WG(4)                                3399.56511093778 	(obj:10)
BG(1)                                488.181839230741 	(obj:10)
BG(2)                                4196.29249897959 	(obj:10)
BG(3)                                4196.29249897959 	(obj:10)
BG(4)                                796.727388041812 	(obj:10)
y1(1,1)                              1059.07509099977 	(obj:0)
y1(2,3)                              1492.42490900187 	(obj:0)
y1(2,5)                              1492.42490900187 	(obj:0)
y1(3,7)                              1492.42490899994 	(obj:0)
y1(3,9)                              1492.42490899994 	(obj:0)
y2(1,2)                              283.185865714423 	(obj:0)
